(set-option :produce-models true)

(declare-const M1 Bool)
(declare-const M2 Bool)
(declare-const M3 Bool)
(declare-const M4 Bool)
(declare-const M5 Bool)
(declare-const M6 Bool)
(declare-const M7 Bool)
(declare-const M8 Bool)
(declare-const M9 Bool)
(declare-const M10 Bool)

(declare-const D1 Bool)
(declare-const D2 Bool)
(declare-const D3 Bool)
(declare-const D4 Bool)
(declare-const D5 Bool)
(declare-const D6 Bool)
(declare-const D7 Bool)
(declare-const D8 Bool)
(declare-const D9 Bool)
(declare-const D10 Bool)

(declare-const L1 Bool)
(declare-const L2 Bool)
(declare-const L3 Bool)
(declare-const L4 Bool)
(declare-const L5 Bool)
(declare-const L6 Bool)
(declare-const L7 Bool)
(declare-const L8 Bool)
(declare-const L9 Bool)
(declare-const L10 Bool)

(declare-const J1 Bool)
(declare-const J2 Bool)
(declare-const J3 Bool)
(declare-const J4 Bool)
(declare-const J5 Bool)
(declare-const J6 Bool)
(declare-const J7 Bool)
(declare-const J8 Bool)
(declare-const J9 Bool)
(declare-const J10 Bool)

(declare-const punteggio Int)

(assert (= M1 D1 L1 J1))
(assert (and (= M2 J2) (= D2 L2) (not (= M2 D2))))
(assert (= M3 D3 L3 J3))
(assert (and (= D4 L4 J4) (not (= M4 D4))))
(assert (and (= M5 J5) (= D5 L5) (not (= M5 D5))))
(assert (and (= M6 L6 J6) (not (= M6 D6))))
(assert (= M7 D7 L7 J7))
(assert (= M8 D8 L8 J8))
(assert (and (= M9 L9) (= D9 J9) (not (= M9 D9))))
(assert (and (= D10 L10 J10) (not (= M10 D10))))

;(assert (= M1 D1 L1 J1))
;(assert (and (= M2 J2) (= D2 L2) (not (= M2 D2))))
;(assert (= M3 D3 L3 J3))
;(assert (and (= D4 L4 J4) (not (= M4 D4))))
;(assert (and (= M5 J5) (= D5 L5) (not (= M5 D5))))
;(assert (and (= M6 L6 J6) (not (= M6 D6))))
;(assert (= M7 D7 L7 J7))
;(assert (= M8 D8 L8 J8))
;(assert (and (= M9 L9) (= D9 J9) (not (= M9 D9))))
;(assert (and (= D10 L10 J10) (not (= M10 D10))))

(assert (= 7 (+ (ite M1 1 0) (ite M2 1 0) (ite M3 1 0) (ite M4 1 0) (ite M5 1 0) (ite M6 1 0 ) (ite M7 1 0) (ite M8 1 0) (ite M9 1 0) (ite M10 1 0))))
(assert (= 5 (+ (ite D1 1 0) (ite D2 1 0) (ite D3 1 0) (ite D4 1 0) (ite D5 1 0) (ite D6 1 0 ) (ite D7 1 0) (ite D8 1 0) (ite D9 1 0) (ite D10 1 0))))
(assert (= 3 (+ (ite L1 1 0) (ite L2 1 0) (ite L3 1 0) (ite L4 1 0) (ite L5 1 0) (ite L6 1 0 ) (ite L7 1 0) (ite L8 1 0) (ite L9 1 0) (ite L10 1 0))))
(assert (= punteggio (+ (ite J1 1 0) (ite J2 1 0) (ite J3 1 0) (ite J4 1 0) (ite J5 1 0) (ite J6 1 0 ) (ite J7 1 0) (ite J8 1 0) (ite J9 1 0) (ite J10 1 0))))

(check-sat)
(get-model)
(exit)